CMD:
./solvers/bin/cadical --plain --no-reduce -t 1600 ./data/cnfs//beemlifts2b1/beemlifts2b1.63.cnf

c --- [ banner ] -------------------------------------------------------------
c 
c CaDiCaL SAT Solver
c Copyright (c) 2016-2024
c A. Biere, M. Fleury, N. Froleyks, K. Fazekas, F. Pollitt, T. Faller
c JKU Linz, University of Freiburg, TU Wien
c 
c Version 2.1.3 5296d3d2a9bf48c154ab2acb5e44625776d821bf
c g++ (Gentoo 12.3.1_p20230526 p2) 12.3.1 20230526 -Wall -Wextra -O3 -DNDEBUG
c Sat Aug 9 07:26:21 PDT 2025 Linux cedar2.int.cedar.computecanada.ca 5.14.0-362.24.2.el9_3.x86_64 x86_64
c 
c --- [ limit ] --------------------------------------------------------------
c 
c setting time limit to 1600 seconds real time (due to '-t 1600')
c 
c --- [ parsing input ] ------------------------------------------------------
c 
c reading DIMACS file from './data/cnfs//beemlifts2b1/beemlifts2b1.63.cnf'
c opening file to read './data/cnfs//beemlifts2b1/beemlifts2b1.63.cnf'
c found 'p cnf 1460602 4319994' header
c parsed 4319994 clauses in 0.68 seconds process time
c 
c --- [ options ] ------------------------------------------------------------
c 
c   --compact=false                (different from default 'true')
c   --decompose=false              (different from default 'true')
c   --deduplicate=false            (different from default 'true')
c   --elim=false                   (different from default 'true')
c   --probe=false                  (different from default 'true')
c   --reduce=false                 (different from default 'true')
c   --subsume=false                (different from default 'true')
c   --ternary=false                (different from default 'true')
c   --transred=false               (different from default 'true')
c   --vivify=false                 (different from default 'true')
c 
c --- [ solving ] ------------------------------------------------------------
c 
c time measured in process time since initialization
c 
c  seconds   reductions  redundant   irredundant
c          MB    restarts       trail         variables
c           level   conflicts       glue            remaining
c 
c *  0.68 670  0 0   0    0    0  0% 0 4318599 1214291 83%
c {  0.79 679  0 0   0    0    0  0% 0 4318599 1214291 83%
c i  1.15 685 136 0  10  203  134 25% 4 4318599 1214263 83%
c i  1.15 685 135 0  10  204  134 25% 4 4318599 1214246 83%
c i  1.23 685 108 0  10  278  179 24% 5 4318599 1213950 83%
c i  1.23 685 108 0  10  279  179 24% 5 4318599 1213948 83%
c i  1.23 685 107 0  10  280  179 24% 5 4318599 1213946 83%
c i  1.23 685 107 0  10  281  179 24% 5 4318599 1213943 83%
c i  1.23 685 106 0  10  283  179 24% 5 4318599 1213846 83%
c i  1.35 692 162 0  14  412  290 37% 5 4318599 1213671 83%
c i  2.22 693 164 0  21  652  479 41% 5 4318599 1213670 83%
c i  2.40 693 157 0  29  690  514 41% 5 4318599 1213668 83%
c i  3.02 693 149 0  54  908  694 44% 5 4318599 1213664 83%
c i  3.02 693 149 0  55  909  694 44% 5 4318599 1213571 83%
c i  3.02 693 149 0  55  910  694 44% 5 4318599 1213445 83%
c i  3.05 693 148 0  59  930  709 43% 5 4318599 1213157 83%
c i  3.06 693 147 0  60  937  714 43% 5 4318599 1213156 83%
c }  3.55 694 144 0  77 1000  774 42% 5 4318599 1213156 83%
c [  3.55 694  0 0  77 1000  774  0% 0 4318599 1213156 83%
c O  3.63 694 75 0  77 1002  776 46% 17 4318599 1213156 83%
c 
c  seconds    reductions  redundant     irredundant
c          MB     restarts       trail           variables
c            level   conflicts        glue             remaining
c 
c i  4.32 695 548 0  78 2235 1834 22% 135 4318599 1212676 83%
c i  4.74 696 543 0  78 2292 1856 22% 133 4318599 1209929 83%
c ]  5.67 697 469 0  78 3003 2479 25% 96 4318599 1209911 83%
c {  5.67 697 144 0  78 3003 2479 42% 5 4318599 1209911 83%
c F  5.67 697 144 0  79 3004 2480 42% 5 4318599 1209871 83%
c i  6.44 697 128 0 112 3177 2626 41% 5 4318599 1209865 83%
c i  6.65 697 124 0 120 3224 2666 40% 6 4318599 1209130 83%
c i  7.65 697 127 0 151 3487 2879 45% 6 4318599 1207905 83%
c i  7.67 697 127 0 156 3504 2895 45% 6 4318599 1207478 83%
c i  8.07 697 120 0 177 3623 2989 44% 6 4318599 1207477 83%
c i  8.25 698 121 0 181 3676 3027 43% 7 4318599 1207447 83%
c i  8.25 698 120 0 182 3681 3031 43% 6 4318599 1207396 83%
c i  8.26 698 120 0 183 3685 3034 43% 6 4318599 1207337 83%
c i  8.26 698 120 0 183 3688 3035 43% 6 4318599 1207230 83%
c i  8.43 698 120 0 185 3758 3096 43% 6 4318599 1207227 83%
c i  8.47 698 117 0 188 3804 3140 43% 6 4318599 1206636 83%
c i  8.47 698 117 0 188 3806 3141 43% 6 4318599 1206405 83%
c i  8.66 698 130 0 189 3903 3223 44% 6 4318599 1206394 83%
c i  8.71 698 129 0 194 3935 3253 44% 6 4318599 1206392 83%
c i  9.02 698 127 0 207 4041 3349 44% 7 4318599 1206330 83%
c 
c  seconds    reductions  redundant   irredundant
c          MB     restarts       trail         variables
c            level   conflicts       glue            remaining
c 
c i  9.11 698 126 0 211 4056 3363 44% 7 4318599 1205526 83%
c i  9.12 698 125 0 211 4076 3374 44% 7 4318599 1203534 82%
c i  9.27 698 124 0 215 4113 3401 44% 7 4318599 1202709 82%
c i  9.29 698 124 0 215 4116 3403 44% 7 4318599 1202708 82%
... skipped 409 lines ...
c i 1176.97 966 63 0 24404 461576 412415 78% 14 3350801 1163974 80%
c i 1179.44 966 64 0 24465 462719 413457 78% 14 3350801 1163965 80%
c B 1186.75 966 63 0 24600 465068 415505 78% 14 3350801 1163965 80%
c i 1218.15 966 63 0 25255 476401 425797 78% 14 3350801 1163964 80%
c i 1218.78 966 63 0 25255 476944 426221 78% 14 3350801 1163963 80%
c i 1218.86 966 63 0 25255 477006 426262 78% 14 3350801 1163962 80%
c i 1230.60 966 62 0 25489 481334 430108 78% 14 3350801 1163961 80%
c 
c   seconds    reductions       redundant     irredundant
c            MB     restarts            trail          variables
c             level      conflicts          glue             remaining
c 
c i 1235.51 966 62 0 25610 482760 431427 78% 14 3350801 1163960 80%
c i 1257.51 966 61 0 26105 489904 437961 78% 14 3350801 1163951 80%
c W 1274.99 995 61 0 26490 496069 443574 78% 14 3350234 1163951 80%
c i 1280.33 995 61 0 26626 497340 444743 78% 14 3350234 1163950 80%
c } 1323.72 995 61 0 27673 511010 457217 78% 14 3350234 1163950 80%
c [ 1323.72 995 241 0 27673 511010 457217 89% 29 3350234 1163950 80%
c i 1338.95 995 282 0 27674 523545 469212 89% 50 3350234 1163945 80%
c W 1345.83 1024 292 0 27674 528073 473525 89% 58 3350184 1163941 80%
c i 1347.03 1024 294 0 27674 529211 474588 89% 58 3350184 1163940 80%
c i 1352.29 1024 300 0 27674 533016 478080 89% 60 3350184 1163939 80%
c I 1387.90 1024 313 0 27684 561074 504521 89% 69 3350184 1163939 80%
c i 1397.94 1024 307 0 27689 572497 515397 90% 64 3350184 1163938 80%
c i 1407.40 1024 305 0 27692 582102 524547 90% 61 3350184 1163937 80%
c i 1409.88 1024 303 0 27694 584194 526522 90% 60 3350184 1163936 80%
c B 1422.44 1024 293 0 27700 595075 536782 90% 57 3350184 1163936 80%
c i 1441.67 1026 274 0 27705 613422 554182 91% 53 3350184 1163935 80%
c i 1459.08 1026 255 0 27707 629457 569430 91% 49 3350184 1163934 80%
c W 1460.77 1103 255 0 27707 630077 570022 91% 49 3350163 1163934 80%
c i 1478.39 1103 231 0 27716 645161 583022 90% 50 3350163 1163933 80%
c i 1495.36 1103 208 0 27720 659750 594082 89% 48 3350163 1163932 80%
c 
c   seconds      reductions       redundant     irredundant
c            MB       restarts            trail          variables
c               level      conflicts          glue             remaining
c 
c O 1501.31 1103 210 0 27724 666079 600048 89% 48 3350163 1163932 80%
c i 1501.71 1103 210 0 27724 666302 600257 89% 48 3350163 1163923 80%
c i 1503.98 1103 207 0 27726 668225 602067 89% 47 3350163 1163891 80%
c i 1515.66 1103 202 0 27730 676652 610117 89% 45 3350163 1163889 80%
c i 1528.02 1103 193 0 27734 684393 617386 90% 44 3350163 1163888 80%
c i 1565.96 1103 180 0 27736 699256 631633 90% 43 3350163 1163887 80%
c B 1577.87 1103 176 0 27736 703083 635189 90% 43 3350163 1163887 80%
c ] 1591.78 1103 171 0 27737 715233 646645 90% 40 3350163 1163887 80%
c ? 1591.78 1103 171 0 27737 715233 646645 90% 40 3350163 1163887 80%
c 
c --- [ result ] -------------------------------------------------------------
c 
c UNKNOWN
c 
c --- [ run-time profiling ] -------------------------------------------------
c 
c process time taken by individual solving procedures
c (percentage relative to process time for solving)
c 
c      1591.10  100.00% search
c      1171.38   73.62% unstable
c       410.08   25.77% stable
c         9.53    0.60% walk
c         0.68    0.04% parse
c         0.11    0.01% lucky
c         0.00    0.00% simplify
c   =================================
c      1591.10   99.96% solve
c 
c last line shows process time for solving
c (percentage relative to total process time)
c 
c --- [ statistics ] ---------------------------------------------------------
c 
c chronological:            209669        29.31 %  of conflicts
c conflicts:                715233       449.52    per second
c decisions:               3023678      1900.37    per second
c fixed:                    296715        20.31 %  of all variables
c learned:                  678174        94.82 %  per conflict
c learned_lits:          180238233       100.00 %  learned literals
c minimized:                     0         0.00 %  learned literals
c shrunken:               43261116        24.00 %  learned literals
c minishrunken:           46380304        25.73 %  learned literals
c otfs:                       1125         0.16 %  of conflict
c propagations:        16421259039        10.32 M  per second
c rephased:                     37     19330.62    interval
c restarts:                  27737        25.79    interval
c stabilizing:                   5        52.32 %  of conflicts
c subsumed:                  29352         0.59 %  of all clauses
c strengthened:               1119         0.02 %  of all clauses
c walked:                       11     65021.18    interval
c 
c seconds are measured in process time for solving
c 
c --- [ resources ] ----------------------------------------------------------
c 
c total process time since initialization:      1591.78    seconds
c total real time since initialization:         1600.01    seconds
c maximum resident set size of process:         1422.04    MB
c 
c --- [ shutting down ] ------------------------------------------------------
c 
c exit 0
